x low 7.00
p edge 8 28
n 99 1.00
n 98 1.00
n 97 1.00
n 96 1.00
n 95 1.00
n 94 1.00
n 93 1.00
n 92 1.00
e 98 99
e 97 99
e 97 98
e 96 99
e 96 98
e 96 97
e 95 99
e 95 98
e 95 97
e 95 96
e 94 99
e 94 98
e 94 97
e 94 96
e 94 95
e 93 98
e 93 97
e 93 96
e 93 95
e 93 94
e 92 99
e 92 97
e 92 96
e 92 95
e 92 94
e 92 93
e 99 93
e 98 92
